NAME: cities_5_13
TYPE: TSP
COMMENT: Generated from CSV
DIMENSION: 5
EDGE_WEIGHT_TYPE: EUC_2D
NODE_COORD_SECTION
1 82.3651027334251 46.17014366554236
2 36.836981575600426 98.61646679843446
3 34.17843303133628 94.69068556988708
4 38.72024148246537 66.69084312675861
5 74.01943998728918 83.8912877341508
EOF
